c Generated map
c Size: 30 * 30, weights in range: 1 to 10, walls: True, with ratio 0.05
c dim 3 of 3
c
p sp 900 1575
c graph contains 900 nodes and 1575 arcs
c
a 1 31 3
a 31 1 3
a 1 2 2
a 2 1 2
a 2 32 4
a 32 2 4
a 2 3 9
a 3 2 9
a 3 33 2
a 33 3 2
a 3 4 8
a 4 3 8
a 4 34 2
a 34 4 2
a 4 5 10
a 5 4 10
a 5 35 5
a 35 5 5
a 5 6 1
a 6 5 1
a 6 36 9
a 36 6 9
a 6 7 5
a 7 6 5
a 7 37 4
a 37 7 4
a 7 8 8
a 8 7 8
a 8 38 1
a 38 8 1
a 8 9 1
a 9 8 1
a 9 39 2
a 39 9 2
a 9 10 4
a 10 9 4
a 10 40 4
a 40 10 4
a 12 42 7
a 42 12 7
a 12 13 3
a 13 12 3
a 13 43 3
a 43 13 3
a 13 14 8
a 14 13 8
a 14 44 7
a 44 14 7
a 14 15 6
a 15 14 6
a 15 45 2
a 45 15 2
a 15 16 1
a 16 15 1
a 16 46 5
a 46 16 5
a 16 17 5
a 17 16 5
a 17 47 4
a 47 17 4
a 17 18 8
a 18 17 8
a 18 48 4
a 48 18 4
a 18 19 5
a 19 18 5
a 19 49 2
a 49 19 2
a 19 20 7
a 20 19 7
a 20 50 9
a 50 20 9
a 20 21 2
a 21 20 2
a 21 22 5
a 22 21 5
a 22 52 10
a 52 22 10
a 24 54 1
a 54 24 1
a 24 25 7
a 25 24 7
a 25 55 10
a 55 25 10
a 25 26 3
a 26 25 3
a 26 56 8
a 56 26 8
a 26 27 2
a 27 26 2
a 27 57 10
a 57 27 10
a 27 28 10
a 28 27 10
a 28 58 2
a 58 28 2
a 28 29 5
a 29 28 5
a 29 59 1
a 59 29 1
a 29 30 4
a 30 29 4
a 30 60 5
a 60 30 5
a 31 61 10
a 61 31 10
a 31 32 9
a 32 31 9
a 32 62 1
a 62 32 1
a 32 33 10
a 33 32 10
a 33 63 7
a 63 33 7
a 33 34 8
a 34 33 8
a 34 64 9
a 64 34 9
a 34 35 8
a 35 34 8
a 35 65 5
a 65 35 5
a 35 36 10
a 36 35 10
a 36 66 3
a 66 36 3
a 36 37 9
a 37 36 9
a 37 67 9
a 67 37 9
a 37 38 3
a 38 37 3
a 38 68 3
a 68 38 3
a 38 39 6
a 39 38 6
a 39 40 3
a 40 39 3
a 40 70 9
a 70 40 9
a 40 41 9
a 41 40 9
a 41 71 9
a 71 41 9
a 41 42 9
a 42 41 9
a 42 72 7
a 72 42 7
a 42 43 3
a 43 42 3
a 43 73 9
a 73 43 9
a 43 44 3
a 44 43 3
a 44 74 1
a 74 44 1
a 44 45 4
a 45 44 4
a 45 75 2
a 75 45 2
a 45 46 6
a 46 45 6
a 46 76 4
a 76 46 4
a 46 47 6
a 47 46 6
a 47 77 5
a 77 47 5
a 47 48 3
a 48 47 3
a 48 78 9
a 78 48 9
a 48 49 6
a 49 48 6
a 49 79 3
a 79 49 3
a 49 50 5
a 50 49 5
a 50 80 2
a 80 50 2
a 52 82 5
a 82 52 5
a 52 53 10
a 53 52 10
a 53 83 3
a 83 53 3
a 53 54 6
a 54 53 6
a 54 84 10
a 84 54 10
a 54 55 2
a 55 54 2
a 55 85 2
a 85 55 2
a 55 56 2
a 56 55 2
a 56 86 4
a 86 56 4
a 56 57 2
a 57 56 2
a 57 87 1
a 87 57 1
a 57 58 2
a 58 57 2
a 58 88 6
a 88 58 6
a 58 59 8
a 59 58 8
a 59 89 2
a 89 59 2
a 59 60 5
a 60 59 5
a 60 90 7
a 90 60 7
a 61 91 4
a 91 61 4
a 61 62 1
a 62 61 1
a 62 63 2
a 63 62 2
a 63 93 6
a 93 63 6
a 63 64 2
a 64 63 2
a 64 94 3
a 94 64 3
a 64 65 4
a 65 64 4
a 65 66 5
a 66 65 5
a 66 96 1
a 96 66 1
a 66 67 2
a 67 66 2
a 67 97 9
a 97 67 9
a 67 68 5
a 68 67 5
a 68 98 4
a 98 68 4
a 70 100 2
a 100 70 2
a 70 71 10
a 71 70 10
a 71 101 8
a 101 71 8
a 71 72 8
a 72 71 8
a 72 102 1
a 102 72 1
a 72 73 10
a 73 72 10
a 73 103 2
a 103 73 2
a 73 74 1
a 74 73 1
a 74 104 4
a 104 74 4
a 74 75 10
a 75 74 10
a 75 105 10
a 105 75 10
a 75 76 9
a 76 75 9
a 76 106 5
a 106 76 5
a 76 77 3
a 77 76 3
a 77 107 2
a 107 77 2
a 77 78 3
a 78 77 3
a 78 108 10
a 108 78 10
a 78 79 9
a 79 78 9
a 79 109 4
a 109 79 4
a 79 80 9
a 80 79 9
a 80 110 6
a 110 80 6
a 80 81 6
a 81 80 6
a 81 82 7
a 82 81 7
a 82 112 9
a 112 82 9
a 82 83 8
a 83 82 8
a 83 113 5
a 113 83 5
a 83 84 6
a 84 83 6
a 84 114 6
a 114 84 6
a 84 85 6
a 85 84 6
a 85 115 6
a 115 85 6
a 85 86 5
a 86 85 5
a 86 116 9
a 116 86 9
a 86 87 2
a 87 86 2
a 87 117 6
a 117 87 6
a 87 88 9
a 88 87 9
a 88 118 6
a 118 88 6
a 88 89 7
a 89 88 7
a 89 119 9
a 119 89 9
a 89 90 5
a 90 89 5
a 91 121 9
a 121 91 9
a 93 123 3
a 123 93 3
a 93 94 1
a 94 93 1
a 94 124 6
a 124 94 6
a 96 126 3
a 126 96 3
a 96 97 1
a 97 96 1
a 97 127 7
a 127 97 7
a 97 98 9
a 98 97 9
a 98 128 2
a 128 98 2
a 98 99 5
a 99 98 5
a 99 129 2
a 129 99 2
a 99 100 6
a 100 99 6
a 100 130 4
a 130 100 4
a 100 101 6
a 101 100 6
a 101 131 6
a 131 101 6
a 101 102 2
a 102 101 2
a 102 132 2
a 132 102 2
a 102 103 8
a 103 102 8
a 103 133 8
a 133 103 8
a 103 104 9
a 104 103 9
a 104 134 9
a 134 104 9
a 104 105 8
a 105 104 8
a 105 135 3
a 135 105 3
a 105 106 1
a 106 105 1
a 106 136 4
a 136 106 4
a 106 107 8
a 107 106 8
a 107 137 8
a 137 107 8
a 107 108 3
a 108 107 3
a 108 138 8
a 138 108 8
a 108 109 9
a 109 108 9
a 109 139 1
a 139 109 1
a 109 110 7
a 110 109 7
a 110 140 8
a 140 110 8
a 112 142 2
a 142 112 2
a 112 113 10
a 113 112 10
a 113 143 9
a 143 113 9
a 113 114 2
a 114 113 2
a 114 144 1
a 144 114 1
a 114 115 10
a 115 114 10
a 115 116 4
a 116 115 4
a 116 146 3
a 146 116 3
a 116 117 10
a 117 116 10
a 117 147 4
a 147 117 4
a 117 118 9
a 118 117 9
a 118 148 1
a 148 118 1
a 118 119 3
a 119 118 3
a 119 149 1
a 149 119 1
a 121 151 4
a 151 121 4
a 121 122 2
a 122 121 2
a 122 152 1
a 152 122 1
a 122 123 8
a 123 122 8
a 123 153 3
a 153 123 3
a 123 124 5
a 124 123 5
a 124 154 6
a 154 124 6
a 124 125 4
a 125 124 4
a 125 155 10
a 155 125 10
a 125 126 2
a 126 125 2
a 126 156 2
a 156 126 2
a 126 127 6
a 127 126 6
a 127 157 9
a 157 127 9
a 127 128 7
a 128 127 7
a 128 158 7
a 158 128 7
a 128 129 7
a 129 128 7
a 129 159 6
a 159 129 6
a 129 130 6
a 130 129 6
a 130 160 6
a 160 130 6
a 130 131 7
a 131 130 7
a 131 161 5
a 161 131 5
a 131 132 4
a 132 131 4
a 132 162 7
a 162 132 7
a 132 133 4
a 133 132 4
a 133 163 8
a 163 133 8
a 133 134 9
a 134 133 9
a 134 164 10
a 164 134 10
a 134 135 10
a 135 134 10
a 135 165 7
a 165 135 7
a 135 136 9
a 136 135 9
a 136 166 8
a 166 136 8
a 136 137 9
a 137 136 9
a 137 167 8
a 167 137 8
a 137 138 2
a 138 137 2
a 138 168 5
a 168 138 5
a 138 139 4
a 139 138 4
a 139 169 3
a 169 139 3
a 139 140 10
a 140 139 10
a 140 170 3
a 170 140 3
a 140 141 9
a 141 140 9
a 141 171 2
a 171 141 2
a 141 142 8
a 142 141 8
a 142 143 2
a 143 142 2
a 143 173 3
a 173 143 3
a 143 144 6
a 144 143 6
a 144 174 7
a 174 144 7
a 146 176 4
a 176 146 4
a 146 147 8
a 147 146 8
a 147 177 2
a 177 147 2
a 147 148 2
a 148 147 2
a 148 178 5
a 178 148 5
a 148 149 6
a 149 148 6
a 149 179 9
a 179 149 9
a 149 150 5
a 150 149 5
a 150 180 4
a 180 150 4
a 151 181 6
a 181 151 6
a 151 152 9
a 152 151 9
a 152 182 4
a 182 152 4
a 152 153 9
a 153 152 9
a 153 183 6
a 183 153 6
a 153 154 2
a 154 153 2
a 154 184 3
a 184 154 3
a 154 155 5
a 155 154 5
a 155 185 2
a 185 155 2
a 155 156 4
a 156 155 4
a 156 186 8
a 186 156 8
a 156 157 9
a 157 156 9
a 157 187 8
a 187 157 8
a 157 158 2
a 158 157 2
a 158 188 9
a 188 158 9
a 158 159 2
a 159 158 2
a 159 189 5
a 189 159 5
a 159 160 1
a 160 159 1
a 160 190 9
a 190 160 9
a 160 161 4
a 161 160 4
a 161 162 8
a 162 161 8
a 162 192 2
a 192 162 2
a 162 163 8
a 163 162 8
a 163 193 8
a 193 163 8
a 163 164 9
a 164 163 9
a 164 194 7
a 194 164 7
a 164 165 4
a 165 164 4
a 165 195 3
a 195 165 3
a 165 166 7
a 166 165 7
a 166 196 8
a 196 166 8
a 166 167 3
a 167 166 3
a 167 197 5
a 197 167 5
a 167 168 7
a 168 167 7
a 168 198 3
a 198 168 3
a 168 169 9
a 169 168 9
a 169 199 6
a 199 169 6
a 169 170 8
a 170 169 8
a 170 200 9
a 200 170 9
a 170 171 8
a 171 170 8
a 171 201 3
a 201 171 3
a 173 203 8
a 203 173 8
a 173 174 9
a 174 173 9
a 174 204 4
a 204 174 4
a 174 175 5
a 175 174 5
a 175 205 6
a 205 175 6
a 175 176 8
a 176 175 8
a 176 206 10
a 206 176 10
a 176 177 4
a 177 176 4
a 177 207 3
a 207 177 3
a 177 178 2
a 178 177 2
a 178 208 8
a 208 178 8
a 178 179 7
a 179 178 7
a 179 209 8
a 209 179 8
a 179 180 6
a 180 179 6
a 180 210 6
a 210 180 6
a 181 211 6
a 211 181 6
a 181 182 6
a 182 181 6
a 182 212 7
a 212 182 7
a 182 183 5
a 183 182 5
a 183 213 9
a 213 183 9
a 183 184 5
a 184 183 5
a 184 214 7
a 214 184 7
a 184 185 2
a 185 184 2
a 185 215 9
a 215 185 9
a 185 186 8
a 186 185 8
a 186 216 7
a 216 186 7
a 186 187 7
a 187 186 7
a 187 217 2
a 217 187 2
a 187 188 6
a 188 187 6
a 188 218 1
a 218 188 1
a 188 189 9
a 189 188 9
a 189 219 3
a 219 189 3
a 189 190 7
a 190 189 7
a 190 220 6
a 220 190 6
a 192 222 6
a 222 192 6
a 192 193 8
a 193 192 8
a 193 223 2
a 223 193 2
a 193 194 1
a 194 193 1
a 194 224 9
a 224 194 9
a 194 195 4
a 195 194 4
a 195 225 9
a 225 195 9
a 195 196 5
a 196 195 5
a 196 226 5
a 226 196 5
a 196 197 4
a 197 196 4
a 197 227 1
a 227 197 1
a 197 198 1
a 198 197 1
a 198 228 3
a 228 198 3
a 198 199 4
a 199 198 4
a 199 229 7
a 229 199 7
a 199 200 9
a 200 199 9
a 200 230 4
a 230 200 4
a 200 201 5
a 201 200 5
a 201 231 8
a 231 201 8
a 203 233 10
a 233 203 10
a 203 204 6
a 204 203 6
a 204 234 2
a 234 204 2
a 204 205 9
a 205 204 9
a 205 235 6
a 235 205 6
a 205 206 8
a 206 205 8
a 206 236 5
a 236 206 5
a 206 207 10
a 207 206 10
a 207 237 3
a 237 207 3
a 207 208 4
a 208 207 4
a 208 238 5
a 238 208 5
a 208 209 4
a 209 208 4
a 209 239 2
a 239 209 2
a 209 210 8
a 210 209 8
a 210 240 5
a 240 210 5
a 211 241 1
a 241 211 1
a 211 212 8
a 212 211 8
a 212 242 1
a 242 212 1
a 212 213 3
a 213 212 3
a 213 243 5
a 243 213 5
a 213 214 2
a 214 213 2
a 214 244 5
a 244 214 5
a 214 215 5
a 215 214 5
a 215 245 6
a 245 215 6
a 215 216 7
a 216 215 7
a 216 246 5
a 246 216 5
a 216 217 7
a 217 216 7
a 217 247 1
a 247 217 1
a 217 218 9
a 218 217 9
a 218 248 4
a 248 218 4
a 218 219 10
a 219 218 10
a 219 249 6
a 249 219 6
a 219 220 6
a 220 219 6
a 220 250 1
a 250 220 1
a 220 221 4
a 221 220 4
a 221 251 4
a 251 221 4
a 221 222 3
a 222 221 3
a 222 252 8
a 252 222 8
a 222 223 6
a 223 222 6
a 223 253 4
a 253 223 4
a 223 224 2
a 224 223 2
a 224 254 4
a 254 224 4
a 224 225 4
a 225 224 4
a 225 255 4
a 255 225 4
a 225 226 3
a 226 225 3
a 226 256 4
a 256 226 4
a 226 227 4
a 227 226 4
a 227 257 6
a 257 227 6
a 227 228 3
a 228 227 3
a 228 258 8
a 258 228 8
a 228 229 9
a 229 228 9
a 229 259 9
a 259 229 9
a 229 230 6
a 230 229 6
a 230 260 7
a 260 230 7
a 230 231 3
a 231 230 3
a 231 261 3
a 261 231 3
a 231 232 4
a 232 231 4
a 232 262 4
a 262 232 4
a 232 233 5
a 233 232 5
a 233 263 7
a 263 233 7
a 233 234 6
a 234 233 6
a 234 264 6
a 264 234 6
a 234 235 5
a 235 234 5
a 235 265 5
a 265 235 5
a 235 236 3
a 236 235 3
a 236 266 4
a 266 236 4
a 236 237 5
a 237 236 5
a 237 267 4
a 267 237 4
a 237 238 3
a 238 237 3
a 238 268 1
a 268 238 1
a 238 239 5
a 239 238 5
a 239 269 4
a 269 239 4
a 239 240 6
a 240 239 6
a 240 270 7
a 270 240 7
a 241 271 8
a 271 241 8
a 241 242 5
a 242 241 5
a 242 272 3
a 272 242 3
a 242 243 5
a 243 242 5
a 243 273 10
a 273 243 10
a 243 244 9
a 244 243 9
a 244 274 7
a 274 244 7
a 244 245 3
a 245 244 3
a 245 275 5
a 275 245 5
a 245 246 7
a 246 245 7
a 246 276 7
a 276 246 7
a 246 247 1
a 247 246 1
a 247 277 9
a 277 247 9
a 247 248 5
a 248 247 5
a 248 278 7
a 278 248 7
a 248 249 7
a 249 248 7
a 249 279 4
a 279 249 4
a 249 250 9
a 250 249 9
a 250 280 7
a 280 250 7
a 250 251 3
a 251 250 3
a 251 281 3
a 281 251 3
a 251 252 5
a 252 251 5
a 252 282 4
a 282 252 4
a 252 253 8
a 253 252 8
a 253 254 9
a 254 253 9
a 254 284 8
a 284 254 8
a 254 255 7
a 255 254 7
a 255 285 9
a 285 255 9
a 255 256 10
a 256 255 10
a 256 286 5
a 286 256 5
a 256 257 9
a 257 256 9
a 257 287 10
a 287 257 10
a 257 258 5
a 258 257 5
a 258 259 10
a 259 258 10
a 259 289 10
a 289 259 10
a 259 260 4
a 260 259 4
a 260 290 5
a 290 260 5
a 260 261 8
a 261 260 8
a 261 291 1
a 291 261 1
a 261 262 1
a 262 261 1
a 262 292 3
a 292 262 3
a 262 263 7
a 263 262 7
a 263 293 9
a 293 263 9
a 263 264 5
a 264 263 5
a 264 294 5
a 294 264 5
a 264 265 2
a 265 264 2
a 265 295 9
a 295 265 9
a 265 266 2
a 266 265 2
a 266 296 2
a 296 266 2
a 266 267 4
a 267 266 4
a 267 297 4
a 297 267 4
a 267 268 4
a 268 267 4
a 268 298 9
a 298 268 9
a 268 269 4
a 269 268 4
a 269 299 8
a 299 269 8
a 269 270 1
a 270 269 1
a 270 300 5
a 300 270 5
a 271 301 3
a 301 271 3
a 271 272 7
a 272 271 7
a 272 273 10
a 273 272 10
a 273 303 9
a 303 273 9
a 273 274 8
a 274 273 8
a 274 304 9
a 304 274 9
a 274 275 1
a 275 274 1
a 275 305 1
a 305 275 1
a 275 276 7
a 276 275 7
a 276 306 6
a 306 276 6
a 276 277 9
a 277 276 9
a 277 307 8
a 307 277 8
a 277 278 2
a 278 277 2
a 278 308 8
a 308 278 8
a 278 279 5
a 279 278 5
a 279 309 7
a 309 279 7
a 279 280 4
a 280 279 4
a 280 310 1
a 310 280 1
a 280 281 2
a 281 280 2
a 281 311 6
a 311 281 6
a 281 282 3
a 282 281 3
a 282 312 5
a 312 282 5
a 284 314 3
a 314 284 3
a 284 285 8
a 285 284 8
a 285 315 8
a 315 285 8
a 285 286 6
a 286 285 6
a 286 316 6
a 316 286 6
a 286 287 5
a 287 286 5
a 287 317 8
a 317 287 8
a 289 319 10
a 319 289 10
a 289 290 9
a 290 289 9
a 290 320 4
a 320 290 4
a 290 291 2
a 291 290 2
a 291 321 6
a 321 291 6
a 291 292 7
a 292 291 7
a 292 322 2
a 322 292 2
a 292 293 2
a 293 292 2
a 293 323 8
a 323 293 8
a 293 294 5
a 294 293 5
a 294 324 10
a 324 294 10
a 294 295 2
a 295 294 2
a 295 325 8
a 325 295 8
a 295 296 5
a 296 295 5
a 296 326 4
a 326 296 4
a 296 297 3
a 297 296 3
a 297 327 8
a 327 297 8
a 297 298 9
a 298 297 9
a 298 328 3
a 328 298 3
a 298 299 3
a 299 298 3
a 299 329 6
a 329 299 6
a 299 300 8
a 300 299 8
a 300 330 4
a 330 300 4
a 303 333 10
a 333 303 10
a 303 304 1
a 304 303 1
a 304 334 4
a 334 304 4
a 304 305 4
a 305 304 4
a 305 335 5
a 335 305 5
a 305 306 8
a 306 305 8
a 306 336 2
a 336 306 2
a 306 307 4
a 307 306 4
a 307 337 6
a 337 307 6
a 307 308 3
a 308 307 3
a 308 338 5
a 338 308 5
a 308 309 6
a 309 308 6
a 309 339 10
a 339 309 10
a 309 310 8
a 310 309 8
a 310 340 10
a 340 310 10
a 310 311 3
a 311 310 3
a 311 341 4
a 341 311 4
a 311 312 6
a 312 311 6
a 312 342 10
a 342 312 10
a 314 344 4
a 344 314 4
a 314 315 1
a 315 314 1
a 315 316 10
a 316 315 10
a 316 346 7
a 346 316 7
a 316 317 6
a 317 316 6
a 317 347 3
a 347 317 3
a 317 318 3
a 318 317 3
a 318 348 8
a 348 318 8
a 318 319 9
a 319 318 9
a 319 349 3
a 349 319 3
a 319 320 8
a 320 319 8
a 320 350 9
a 350 320 9
a 320 321 4
a 321 320 4
a 321 351 5
a 351 321 5
a 321 322 4
a 322 321 4
a 322 352 3
a 352 322 3
a 322 323 10
a 323 322 10
a 323 353 7
a 353 323 7
a 323 324 7
a 324 323 7
a 324 354 8
a 354 324 8
a 324 325 9
a 325 324 9
a 325 355 6
a 355 325 6
a 325 326 6
a 326 325 6
a 326 356 9
a 356 326 9
a 326 327 8
a 327 326 8
a 327 357 3
a 357 327 3
a 327 328 9
a 328 327 9
a 328 358 6
a 358 328 6
a 328 329 5
a 329 328 5
a 329 359 5
a 359 329 5
a 329 330 8
a 330 329 8
a 330 360 9
a 360 330 9
a 332 362 1
a 362 332 1
a 332 333 10
a 333 332 10
a 333 363 10
a 363 333 10
a 333 334 3
a 334 333 3
a 334 364 2
a 364 334 2
a 334 335 9
a 335 334 9
a 335 365 4
a 365 335 4
a 335 336 8
a 336 335 8
a 336 366 3
a 366 336 3
a 336 337 8
a 337 336 8
a 337 367 8
a 367 337 8
a 337 338 4
a 338 337 4
a 338 368 1
a 368 338 1
a 338 339 8
a 339 338 8
a 339 369 6
a 369 339 6
a 339 340 6
a 340 339 6
a 340 370 4
a 370 340 4
a 340 341 10
a 341 340 10
a 341 371 3
a 371 341 3
a 341 342 1
a 342 341 1
a 342 372 7
a 372 342 7
a 342 343 10
a 343 342 10
a 343 373 6
a 373 343 6
a 343 344 5
a 344 343 5
a 344 374 5
a 374 344 5
a 346 376 8
a 376 346 8
a 346 347 3
a 347 346 3
a 347 377 3
a 377 347 3
a 347 348 5
a 348 347 5
a 348 378 10
a 378 348 10
a 348 349 5
a 349 348 5
a 349 379 8
a 379 349 8
a 349 350 4
a 350 349 4
a 350 380 9
a 380 350 9
a 350 351 6
a 351 350 6
a 351 381 6
a 381 351 6
a 351 352 1
a 352 351 1
a 352 382 6
a 382 352 6
a 352 353 7
a 353 352 7
a 353 383 3
a 383 353 3
a 353 354 9
a 354 353 9
a 354 384 3
a 384 354 3
a 354 355 5
a 355 354 5
a 355 385 4
a 385 355 4
a 355 356 5
a 356 355 5
a 356 357 2
a 357 356 2
a 357 387 1
a 387 357 1
a 357 358 10
a 358 357 10
a 358 388 7
a 388 358 7
a 358 359 10
a 359 358 10
a 359 389 10
a 389 359 10
a 359 360 6
a 360 359 6
a 360 390 7
a 390 360 7
a 361 362 2
a 362 361 2
a 362 392 3
a 392 362 3
a 362 363 9
a 363 362 9
a 363 393 6
a 393 363 6
a 363 364 10
a 364 363 10
a 364 394 2
a 394 364 2
a 364 365 2
a 365 364 2
a 365 395 4
a 395 365 4
a 365 366 8
a 366 365 8
a 366 396 4
a 396 366 4
a 366 367 6
a 367 366 6
a 367 397 6
a 397 367 6
a 367 368 7
a 368 367 7
a 368 398 4
a 398 368 4
a 368 369 3
a 369 368 3
a 369 399 9
a 399 369 9
a 369 370 10
a 370 369 10
a 370 400 7
a 400 370 7
a 370 371 4
a 371 370 4
a 371 401 1
a 401 371 1
a 371 372 6
a 372 371 6
a 372 402 3
a 402 372 3
a 372 373 6
a 373 372 6
a 373 403 7
a 403 373 7
a 373 374 3
a 374 373 3
a 374 404 3
a 404 374 3
a 374 375 3
a 375 374 3
a 375 405 4
a 405 375 4
a 375 376 6
a 376 375 6
a 376 406 8
a 406 376 8
a 376 377 1
a 377 376 1
a 377 407 3
a 407 377 3
a 377 378 8
a 378 377 8
a 378 408 9
a 408 378 9
a 378 379 9
a 379 378 9
a 379 409 3
a 409 379 3
a 379 380 2
a 380 379 2
a 380 410 7
a 410 380 7
a 380 381 7
a 381 380 7
a 381 411 2
a 411 381 2
a 381 382 10
a 382 381 10
a 382 412 9
a 412 382 9
a 382 383 1
a 383 382 1
a 383 384 4
a 384 383 4
a 384 414 9
a 414 384 9
a 384 385 8
a 385 384 8
a 385 415 3
a 415 385 3
a 387 417 5
a 417 387 5
a 387 388 9
a 388 387 9
a 388 418 8
a 418 388 8
a 388 389 5
a 389 388 5
a 389 419 9
a 419 389 9
a 389 390 4
a 390 389 4
a 390 420 6
a 420 390 6
a 392 422 4
a 422 392 4
a 392 393 8
a 393 392 8
a 393 423 10
a 423 393 10
a 393 394 5
a 394 393 5
a 394 424 7
a 424 394 7
a 394 395 3
a 395 394 3
a 395 425 9
a 425 395 9
a 395 396 4
a 396 395 4
a 396 426 3
a 426 396 3
a 396 397 6
a 397 396 6
a 397 427 3
a 427 397 3
a 397 398 2
a 398 397 2
a 398 428 10
a 428 398 10
a 398 399 2
a 399 398 2
a 399 429 6
a 429 399 6
a 399 400 3
a 400 399 3
a 400 430 4
a 430 400 4
a 400 401 6
a 401 400 6
a 401 431 3
a 431 401 3
a 401 402 10
a 402 401 10
a 402 432 4
a 432 402 4
a 402 403 4
a 403 402 4
a 403 433 2
a 433 403 2
a 403 404 1
a 404 403 1
a 404 434 2
a 434 404 2
a 404 405 6
a 405 404 6
a 405 435 6
a 435 405 6
a 405 406 5
a 406 405 5
a 406 436 6
a 436 406 6
a 406 407 8
a 407 406 8
a 407 437 2
a 437 407 2
a 407 408 6
a 408 407 6
a 408 438 10
a 438 408 10
a 408 409 6
a 409 408 6
a 409 439 6
a 439 409 6
a 409 410 8
a 410 409 8
a 410 440 2
a 440 410 2
a 410 411 3
a 411 410 3
a 411 441 3
a 441 411 3
a 411 412 8
a 412 411 8
a 412 442 2
a 442 412 2
a 414 444 8
a 444 414 8
a 414 415 3
a 415 414 3
a 415 445 3
a 445 415 3
a 415 416 5
a 416 415 5
a 416 446 7
a 446 416 7
a 416 417 5
a 417 416 5
a 417 447 1
a 447 417 1
a 417 418 4
a 418 417 4
a 418 448 1
a 448 418 1
a 418 419 5
a 419 418 5
a 419 449 7
a 449 419 7
a 419 420 9
a 420 419 9
a 420 450 8
a 450 420 8
a 421 451 10
a 451 421 10
a 421 422 9
a 422 421 9
a 422 452 5
a 452 422 5
a 422 423 6
a 423 422 6
a 423 453 4
a 453 423 4
a 423 424 3
a 424 423 3
a 424 454 1
a 454 424 1
a 424 425 6
a 425 424 6
a 425 455 2
a 455 425 2
a 425 426 5
a 426 425 5
a 426 456 6
a 456 426 6
a 426 427 2
a 427 426 2
a 427 457 8
a 457 427 8
a 427 428 5
a 428 427 5
a 428 458 7
a 458 428 7
a 428 429 7
a 429 428 7
a 429 459 9
a 459 429 9
a 429 430 3
a 430 429 3
a 430 460 10
a 460 430 10
a 430 431 2
a 431 430 2
a 431 461 2
a 461 431 2
a 431 432 6
a 432 431 6
a 432 462 3
a 462 432 3
a 432 433 7
a 433 432 7
a 433 463 10
a 463 433 10
a 433 434 8
a 434 433 8
a 434 464 3
a 464 434 3
a 434 435 3
a 435 434 3
a 435 465 3
a 465 435 3
a 435 436 8
a 436 435 8
a 436 466 6
a 466 436 6
a 436 437 5
a 437 436 5
a 437 467 4
a 467 437 4
a 437 438 3
a 438 437 3
a 438 468 4
a 468 438 4
a 438 439 5
a 439 438 5
a 439 469 5
a 469 439 5
a 439 440 6
a 440 439 6
a 440 470 2
a 470 440 2
a 440 441 7
a 441 440 7
a 441 471 1
a 471 441 1
a 441 442 2
a 442 441 2
a 442 472 5
a 472 442 5
a 442 443 9
a 443 442 9
a 443 473 3
a 473 443 3
a 443 444 7
a 444 443 7
a 444 474 7
a 474 444 7
a 444 445 5
a 445 444 5
a 445 475 3
a 475 445 3
a 445 446 4
a 446 445 4
a 446 476 9
a 476 446 9
a 446 447 5
a 447 446 5
a 447 477 2
a 477 447 2
a 447 448 5
a 448 447 5
a 448 478 4
a 478 448 4
a 448 449 8
a 449 448 8
a 449 479 10
a 479 449 10
a 449 450 5
a 450 449 5
a 450 480 5
a 480 450 5
a 451 481 8
a 481 451 8
a 451 452 5
a 452 451 5
a 452 482 8
a 482 452 8
a 452 453 1
a 453 452 1
a 453 483 5
a 483 453 5
a 453 454 2
a 454 453 2
a 454 484 7
a 484 454 7
a 454 455 5
a 455 454 5
a 455 485 6
a 485 455 6
a 455 456 4
a 456 455 4
a 456 486 1
a 486 456 1
a 456 457 6
a 457 456 6
a 457 487 3
a 487 457 3
a 457 458 4
a 458 457 4
a 458 488 8
a 488 458 8
a 458 459 10
a 459 458 10
a 459 489 4
a 489 459 4
a 459 460 3
a 460 459 3
a 460 490 9
a 490 460 9
a 460 461 9
a 461 460 9
a 461 491 10
a 491 461 10
a 461 462 3
a 462 461 3
a 462 492 1
a 492 462 1
a 462 463 6
a 463 462 6
a 463 493 10
a 493 463 10
a 463 464 6
a 464 463 6
a 464 494 3
a 494 464 3
a 464 465 2
a 465 464 2
a 465 495 2
a 495 465 2
a 465 466 5
a 466 465 5
a 466 496 6
a 496 466 6
a 466 467 4
a 467 466 4
a 467 497 2
a 497 467 2
a 467 468 7
a 468 467 7
a 468 498 9
a 498 468 9
a 468 469 5
a 469 468 5
a 469 499 5
a 499 469 5
a 469 470 10
a 470 469 10
a 470 500 6
a 500 470 6
a 470 471 7
a 471 470 7
a 471 501 4
a 501 471 4
a 471 472 3
a 472 471 3
a 472 502 9
a 502 472 9
a 472 473 4
a 473 472 4
a 473 503 5
a 503 473 5
a 473 474 2
a 474 473 2
a 474 504 5
a 504 474 5
a 474 475 4
a 475 474 4
a 475 505 1
a 505 475 1
a 475 476 5
a 476 475 5
a 476 506 1
a 506 476 1
a 476 477 1
a 477 476 1
a 477 507 1
a 507 477 1
a 477 478 7
a 478 477 7
a 478 508 3
a 508 478 3
a 478 479 3
a 479 478 3
a 479 509 6
a 509 479 6
a 479 480 8
a 480 479 8
a 480 510 5
a 510 480 5
a 481 511 3
a 511 481 3
a 481 482 5
a 482 481 5
a 482 512 4
a 512 482 4
a 482 483 4
a 483 482 4
a 483 513 8
a 513 483 8
a 483 484 5
a 484 483 5
a 484 514 6
a 514 484 6
a 484 485 6
a 485 484 6
a 485 515 1
a 515 485 1
a 485 486 1
a 486 485 1
a 486 516 6
a 516 486 6
a 486 487 8
a 487 486 8
a 487 517 4
a 517 487 4
a 487 488 5
a 488 487 5
a 488 518 4
a 518 488 4
a 488 489 8
a 489 488 8
a 489 519 2
a 519 489 2
a 489 490 7
a 490 489 7
a 490 520 3
a 520 490 3
a 490 491 9
a 491 490 9
a 491 521 3
a 521 491 3
a 491 492 6
a 492 491 6
a 492 522 10
a 522 492 10
a 492 493 5
a 493 492 5
a 493 523 4
a 523 493 4
a 493 494 7
a 494 493 7
a 494 524 3
a 524 494 3
a 494 495 10
a 495 494 10
a 495 525 2
a 525 495 2
a 495 496 2
a 496 495 2
a 496 526 2
a 526 496 2
a 496 497 1
a 497 496 1
a 497 527 10
a 527 497 10
a 497 498 6
a 498 497 6
a 498 528 10
a 528 498 10
a 498 499 9
a 499 498 9
a 499 529 10
a 529 499 10
a 499 500 10
a 500 499 10
a 500 530 7
a 530 500 7
a 500 501 4
a 501 500 4
a 501 531 2
a 531 501 2
a 501 502 4
a 502 501 4
a 502 532 2
a 532 502 2
a 502 503 2
a 503 502 2
a 503 533 2
a 533 503 2
a 503 504 7
a 504 503 7
a 504 534 2
a 534 504 2
a 504 505 10
a 505 504 10
a 505 535 1
a 535 505 1
a 505 506 6
a 506 505 6
a 506 536 1
a 536 506 1
a 506 507 4
a 507 506 4
a 507 537 7
a 537 507 7
a 507 508 5
a 508 507 5
a 508 538 4
a 538 508 4
a 508 509 1
a 509 508 1
a 509 539 4
a 539 509 4
a 509 510 10
a 510 509 10
a 510 540 5
a 540 510 5
a 511 512 10
a 512 511 10
a 512 542 5
a 542 512 5
a 512 513 9
a 513 512 9
a 513 543 8
a 543 513 8
a 513 514 1
a 514 513 1
a 514 515 7
a 515 514 7
a 515 545 10
a 545 515 10
a 515 516 6
a 516 515 6
a 516 546 8
a 546 516 8
a 516 517 5
a 517 516 5
a 517 547 3
a 547 517 3
a 517 518 2
a 518 517 2
a 518 548 6
a 548 518 6
a 518 519 10
a 519 518 10
a 519 549 6
a 549 519 6
a 519 520 4
a 520 519 4
a 520 550 5
a 550 520 5
a 520 521 9
a 521 520 9
a 521 551 4
a 551 521 4
a 521 522 8
a 522 521 8
a 522 552 2
a 552 522 2
a 522 523 9
a 523 522 9
a 523 553 4
a 553 523 4
a 523 524 6
a 524 523 6
a 524 554 1
a 554 524 1
a 524 525 8
a 525 524 8
a 525 555 1
a 555 525 1
a 525 526 9
a 526 525 9
a 526 556 7
a 556 526 7
a 526 527 8
a 527 526 8
a 527 557 8
a 557 527 8
a 527 528 9
a 528 527 9
a 528 558 5
a 558 528 5
a 528 529 5
a 529 528 5
a 529 559 1
a 559 529 1
a 529 530 9
a 530 529 9
a 530 560 4
a 560 530 4
a 530 531 10
a 531 530 10
a 531 561 7
a 561 531 7
a 531 532 4
a 532 531 4
a 532 562 4
a 562 532 4
a 532 533 2
a 533 532 2
a 533 563 7
a 563 533 7
a 533 534 5
a 534 533 5
a 534 564 8
a 564 534 8
a 534 535 7
a 535 534 7
a 535 565 8
a 565 535 8
a 535 536 10
a 536 535 10
a 536 566 4
a 566 536 4
a 536 537 3
a 537 536 3
a 537 567 4
a 567 537 4
a 537 538 9
a 538 537 9
a 538 568 3
a 568 538 3
a 538 539 5
a 539 538 5
a 539 569 10
a 569 539 10
a 539 540 10
a 540 539 10
a 540 570 1
a 570 540 1
a 542 572 5
a 572 542 5
a 542 543 9
a 543 542 9
a 543 573 9
a 573 543 9
a 545 575 10
a 575 545 10
a 545 546 1
a 546 545 1
a 546 576 4
a 576 546 4
a 546 547 8
a 547 546 8
a 547 577 9
a 577 547 9
a 547 548 4
a 548 547 4
a 548 549 9
a 549 548 9
a 549 579 10
a 579 549 10
a 549 550 3
a 550 549 3
a 550 580 2
a 580 550 2
a 550 551 5
a 551 550 5
a 551 581 8
a 581 551 8
a 551 552 9
a 552 551 9
a 552 582 8
a 582 552 8
a 552 553 5
a 553 552 5
a 553 583 10
a 583 553 10
a 553 554 2
a 554 553 2
a 554 584 4
a 584 554 4
a 554 555 7
a 555 554 7
a 555 585 2
a 585 555 2
a 555 556 7
a 556 555 7
a 556 586 6
a 586 556 6
a 556 557 3
a 557 556 3
a 557 587 9
a 587 557 9
a 557 558 3
a 558 557 3
a 558 559 7
a 559 558 7
a 559 589 2
a 589 559 2
a 559 560 8
a 560 559 8
a 560 590 3
a 590 560 3
a 560 561 7
a 561 560 7
a 561 591 3
a 591 561 3
a 561 562 1
a 562 561 1
a 562 592 4
a 592 562 4
a 562 563 4
a 563 562 4
a 563 564 5
a 564 563 5
a 564 594 3
a 594 564 3
a 564 565 3
a 565 564 3
a 565 595 8
a 595 565 8
a 565 566 10
a 566 565 10
a 566 596 3
a 596 566 3
a 566 567 5
a 567 566 5
a 567 597 5
a 597 567 5
a 567 568 5
a 568 567 5
a 568 598 4
a 598 568 4
a 568 569 1
a 569 568 1
a 569 599 2
a 599 569 2
a 569 570 7
a 570 569 7
a 570 600 1
a 600 570 1
a 571 601 1
a 601 571 1
a 571 572 9
a 572 571 9
a 572 602 2
a 602 572 2
a 572 573 10
a 573 572 10
a 573 603 2
a 603 573 2
a 573 574 1
a 574 573 1
a 574 575 3
a 575 574 3
a 575 605 4
a 605 575 4
a 575 576 2
a 576 575 2
a 576 606 9
a 606 576 9
a 576 577 3
a 577 576 3
a 577 607 5
a 607 577 5
a 579 609 8
a 609 579 8
a 579 580 5
a 580 579 5
a 580 610 3
a 610 580 3
a 580 581 8
a 581 580 8
a 581 582 9
a 582 581 9
a 582 612 7
a 612 582 7
a 582 583 8
a 583 582 8
a 583 613 8
a 613 583 8
a 583 584 7
a 584 583 7
a 584 614 5
a 614 584 5
a 584 585 8
a 585 584 8
a 585 615 4
a 615 585 4
a 585 586 2
a 586 585 2
a 586 616 7
a 616 586 7
a 586 587 2
a 587 586 2
a 587 617 4
a 617 587 4
a 589 619 1
a 619 589 1
a 589 590 4
a 590 589 4
a 590 620 4
a 620 590 4
a 590 591 10
a 591 590 10
a 591 621 6
a 621 591 6
a 591 592 9
a 592 591 9
a 592 622 5
a 622 592 5
a 594 595 8
a 595 594 8
a 595 625 8
a 625 595 8
a 595 596 1
a 596 595 1
a 596 626 10
a 626 596 10
a 596 597 7
a 597 596 7
a 597 627 4
a 627 597 4
a 597 598 3
a 598 597 3
a 598 628 3
a 628 598 3
a 598 599 4
a 599 598 4
a 599 629 6
a 629 599 6
a 599 600 8
a 600 599 8
a 600 630 6
a 630 600 6
a 601 631 2
a 631 601 2
a 601 602 9
a 602 601 9
a 602 632 2
a 632 602 2
a 602 603 6
a 603 602 6
a 605 635 6
a 635 605 6
a 605 606 4
a 606 605 4
a 606 636 4
a 636 606 4
a 606 607 4
a 607 606 4
a 607 637 3
a 637 607 3
a 607 608 4
a 608 607 4
a 608 638 7
a 638 608 7
a 608 609 1
a 609 608 1
a 609 639 7
a 639 609 7
a 609 610 2
a 610 609 2
a 610 640 3
a 640 610 3
a 612 642 8
a 642 612 8
a 612 613 7
a 613 612 7
a 613 643 8
a 643 613 8
a 613 614 5
a 614 613 5
a 614 644 9
a 644 614 9
a 614 615 9
a 615 614 9
a 615 645 4
a 645 615 4
a 615 616 9
a 616 615 9
a 616 646 10
a 646 616 10
a 616 617 8
a 617 616 8
a 617 647 2
a 647 617 2
a 617 618 5
a 618 617 5
a 618 648 2
a 648 618 2
a 618 619 3
a 619 618 3
a 619 649 5
a 649 619 5
a 619 620 10
a 620 619 10
a 620 650 9
a 650 620 9
a 620 621 5
a 621 620 5
a 621 651 4
a 651 621 4
a 621 622 10
a 622 621 10
a 622 652 3
a 652 622 3
a 622 623 4
a 623 622 4
a 623 653 7
a 653 623 7
a 625 655 6
a 655 625 6
a 625 626 6
a 626 625 6
a 626 656 10
a 656 626 10
a 626 627 4
a 627 626 4
a 627 657 4
a 657 627 4
a 627 628 10
a 628 627 10
a 628 658 5
a 658 628 5
a 628 629 9
a 629 628 9
a 629 659 2
a 659 629 2
a 629 630 2
a 630 629 2
a 630 660 8
a 660 630 8
a 631 661 5
a 661 631 5
a 631 632 7
a 632 631 7
a 632 662 3
a 662 632 3
a 634 664 6
a 664 634 6
a 634 635 4
a 635 634 4
a 635 665 10
a 665 635 10
a 635 636 4
a 636 635 4
a 636 666 5
a 666 636 5
a 636 637 10
a 637 636 10
a 637 667 7
a 667 637 7
a 637 638 4
a 638 637 4
a 638 668 2
a 668 638 2
a 638 639 7
a 639 638 7
a 639 669 3
a 669 639 3
a 639 640 8
a 640 639 8
a 640 670 10
a 670 640 10
a 640 641 8
a 641 640 8
a 641 671 6
a 671 641 6
a 641 642 9
a 642 641 9
a 642 672 6
a 672 642 6
a 642 643 4
a 643 642 4
a 643 673 5
a 673 643 5
a 643 644 8
a 644 643 8
a 644 674 6
a 674 644 6
a 644 645 4
a 645 644 4
a 645 675 10
a 675 645 10
a 645 646 3
a 646 645 3
a 646 676 8
a 676 646 8
a 646 647 10
a 647 646 10
a 647 677 5
a 677 647 5
a 647 648 5
a 648 647 5
a 648 678 6
a 678 648 6
a 648 649 9
a 649 648 9
a 649 679 5
a 679 649 5
a 649 650 3
a 650 649 3
a 650 680 4
a 680 650 4
a 650 651 4
a 651 650 4
a 651 681 7
a 681 651 7
a 651 652 8
a 652 651 8
a 652 682 7
a 682 652 7
a 652 653 6
a 653 652 6
a 653 683 3
a 683 653 3
a 653 654 4
a 654 653 4
a 654 684 1
a 684 654 1
a 654 655 8
a 655 654 8
a 655 685 6
a 685 655 6
a 655 656 6
a 656 655 6
a 656 686 6
a 686 656 6
a 656 657 7
a 657 656 7
a 657 687 5
a 687 657 5
a 657 658 1
a 658 657 1
a 658 688 3
a 688 658 3
a 658 659 4
a 659 658 4
a 659 689 9
a 689 659 9
a 659 660 7
a 660 659 7
a 660 690 2
a 690 660 2
a 661 691 4
a 691 661 4
a 661 662 2
a 662 661 2
a 662 692 8
a 692 662 8
a 662 663 2
a 663 662 2
a 663 693 3
a 693 663 3
a 663 664 5
a 664 663 5
a 664 694 2
a 694 664 2
a 664 665 6
a 665 664 6
a 665 695 9
a 695 665 9
a 665 666 6
a 666 665 6
a 666 696 8
a 696 666 8
a 666 667 4
a 667 666 4
a 667 697 7
a 697 667 7
a 667 668 4
a 668 667 4
a 668 698 6
a 698 668 6
a 668 669 10
a 669 668 10
a 669 699 2
a 699 669 2
a 669 670 5
a 670 669 5
a 670 671 8
a 671 670 8
a 671 701 4
a 701 671 4
a 671 672 7
a 672 671 7
a 672 673 1
a 673 672 1
a 673 703 7
a 703 673 7
a 673 674 3
a 674 673 3
a 674 704 6
a 704 674 6
a 674 675 1
a 675 674 1
a 675 705 2
a 705 675 2
a 675 676 6
a 676 675 6
a 676 706 8
a 706 676 8
a 676 677 5
a 677 676 5
a 677 707 8
a 707 677 8
a 677 678 4
a 678 677 4
a 678 708 1
a 708 678 1
a 678 679 8
a 679 678 8
a 679 709 3
a 709 679 3
a 679 680 1
a 680 679 1
a 680 710 2
a 710 680 2
a 680 681 9
a 681 680 9
a 681 711 4
a 711 681 4
a 681 682 2
a 682 681 2
a 682 712 8
a 712 682 8
a 682 683 10
a 683 682 10
a 683 713 1
a 713 683 1
a 683 684 6
a 684 683 6
a 684 714 6
a 714 684 6
a 684 685 8
a 685 684 8
a 685 715 1
a 715 685 1
a 685 686 9
a 686 685 9
a 686 716 4
a 716 686 4
a 686 687 4
a 687 686 4
a 687 717 10
a 717 687 10
a 687 688 7
a 688 687 7
a 688 718 6
a 718 688 6
a 688 689 5
a 689 688 5
a 689 719 10
a 719 689 10
a 689 690 3
a 690 689 3
a 690 720 3
a 720 690 3
a 691 721 2
a 721 691 2
a 691 692 2
a 692 691 2
a 692 722 8
a 722 692 8
a 692 693 8
a 693 692 8
a 693 723 1
a 723 693 1
a 693 694 4
a 694 693 4
a 694 724 4
a 724 694 4
a 694 695 10
a 695 694 10
a 695 696 3
a 696 695 3
a 696 726 10
a 726 696 10
a 696 697 8
a 697 696 8
a 697 727 7
a 727 697 7
a 697 698 9
a 698 697 9
a 698 728 7
a 728 698 7
a 698 699 7
a 699 698 7
a 699 729 3
a 729 699 3
a 701 731 2
a 731 701 2
a 703 733 2
a 733 703 2
a 703 704 9
a 704 703 9
a 704 734 4
a 734 704 4
a 704 705 9
a 705 704 9
a 705 706 10
a 706 705 10
a 706 736 2
a 736 706 2
a 706 707 6
a 707 706 6
a 707 737 8
a 737 707 8
a 707 708 10
a 708 707 10
a 708 738 7
a 738 708 7
a 708 709 5
a 709 708 5
a 709 739 5
a 739 709 5
a 709 710 7
a 710 709 7
a 710 740 6
a 740 710 6
a 710 711 2
a 711 710 2
a 711 741 3
a 741 711 3
a 711 712 4
a 712 711 4
a 712 742 5
a 742 712 5
a 712 713 1
a 713 712 1
a 713 743 10
a 743 713 10
a 713 714 6
a 714 713 6
a 714 744 2
a 744 714 2
a 714 715 5
a 715 714 5
a 715 745 3
a 745 715 3
a 715 716 5
a 716 715 5
a 716 746 9
a 746 716 9
a 716 717 6
a 717 716 6
a 717 747 10
a 747 717 10
a 717 718 2
a 718 717 2
a 718 748 1
a 748 718 1
a 718 719 6
a 719 718 6
a 719 749 5
a 749 719 5
a 719 720 8
a 720 719 8
a 720 750 4
a 750 720 4
a 721 751 9
a 751 721 9
a 721 722 8
a 722 721 8
a 722 752 10
a 752 722 10
a 722 723 2
a 723 722 2
a 723 753 4
a 753 723 4
a 723 724 9
a 724 723 9
a 724 754 2
a 754 724 2
a 726 756 7
a 756 726 7
a 726 727 4
a 727 726 4
a 727 757 7
a 757 727 7
a 727 728 7
a 728 727 7
a 728 758 2
a 758 728 2
a 728 729 9
a 729 728 9
a 729 759 4
a 759 729 4
a 729 730 10
a 730 729 10
a 730 760 6
a 760 730 6
a 730 731 8
a 731 730 8
a 731 761 2
a 761 731 2
a 731 732 1
a 732 731 1
a 732 762 9
a 762 732 9
a 732 733 2
a 733 732 2
a 733 763 3
a 763 733 3
a 733 734 1
a 734 733 1
a 734 764 9
a 764 734 9
a 736 766 4
a 766 736 4
a 736 737 7
a 737 736 7
a 737 738 4
a 738 737 4
a 738 739 4
a 739 738 4
a 739 769 1
a 769 739 1
a 739 740 6
a 740 739 6
a 740 770 9
a 770 740 9
a 740 741 10
a 741 740 10
a 741 771 9
a 771 741 9
a 741 742 8
a 742 741 8
a 742 772 4
a 772 742 4
a 742 743 1
a 743 742 1
a 743 773 6
a 773 743 6
a 743 744 4
a 744 743 4
a 744 774 1
a 774 744 1
a 744 745 6
a 745 744 6
a 745 775 6
a 775 745 6
a 745 746 9
a 746 745 9
a 746 776 5
a 776 746 5
a 746 747 1
a 747 746 1
a 747 777 9
a 777 747 9
a 747 748 1
a 748 747 1
a 748 778 7
a 778 748 7
a 748 749 6
a 749 748 6
a 749 779 3
a 779 749 3
a 749 750 9
a 750 749 9
a 750 780 2
a 780 750 2
a 751 781 10
a 781 751 10
a 751 752 9
a 752 751 9
a 752 782 3
a 782 752 3
a 752 753 6
a 753 752 6
a 753 783 9
a 783 753 9
a 753 754 7
a 754 753 7
a 754 784 2
a 784 754 2
a 754 755 10
a 755 754 10
a 755 785 7
a 785 755 7
a 755 756 2
a 756 755 2
a 756 786 2
a 786 756 2
a 756 757 4
a 757 756 4
a 757 787 4
a 787 757 4
a 757 758 9
a 758 757 9
a 758 759 6
a 759 758 6
a 759 789 10
a 789 759 10
a 759 760 5
a 760 759 5
a 760 790 6
a 790 760 6
a 760 761 10
a 761 760 10
a 761 791 7
a 791 761 7
a 761 762 2
a 762 761 2
a 762 792 6
a 792 762 6
a 762 763 1
a 763 762 1
a 763 793 6
a 793 763 6
a 763 764 5
a 764 763 5
a 764 794 2
a 794 764 2
a 764 765 8
a 765 764 8
a 765 766 10
a 766 765 10
a 766 796 10
a 796 766 10
a 769 799 5
a 799 769 5
a 769 770 9
a 770 769 9
a 770 800 3
a 800 770 3
a 770 771 3
a 771 770 3
a 771 801 9
a 801 771 9
a 771 772 2
a 772 771 2
a 772 802 6
a 802 772 6
a 772 773 4
a 773 772 4
a 773 803 9
a 803 773 9
a 773 774 5
a 774 773 5
a 774 804 10
a 804 774 10
a 774 775 10
a 775 774 10
a 775 805 8
a 805 775 8
a 775 776 6
a 776 775 6
a 776 806 3
a 806 776 3
a 776 777 2
a 777 776 2
a 777 807 9
a 807 777 9
a 777 778 1
a 778 777 1
a 778 808 8
a 808 778 8
a 778 779 1
a 779 778 1
a 779 809 7
a 809 779 7
a 779 780 6
a 780 779 6
a 780 810 2
a 810 780 2
a 781 811 9
a 811 781 9
a 781 782 9
a 782 781 9
a 782 812 10
a 812 782 10
a 782 783 7
a 783 782 7
a 783 813 3
a 813 783 3
a 783 784 8
a 784 783 8
a 784 785 6
a 785 784 6
a 785 815 6
a 815 785 6
a 785 786 10
a 786 785 10
a 786 816 2
a 816 786 2
a 786 787 3
a 787 786 3
a 787 817 6
a 817 787 6
a 789 819 1
a 819 789 1
a 789 790 7
a 790 789 7
a 790 820 4
a 820 790 4
a 790 791 10
a 791 790 10
a 791 821 6
a 821 791 6
a 791 792 5
a 792 791 5
a 792 822 9
a 822 792 9
a 792 793 7
a 793 792 7
a 793 823 8
a 823 793 8
a 793 794 8
a 794 793 8
a 794 824 6
a 824 794 6
a 796 826 3
a 826 796 3
a 796 797 8
a 797 796 8
a 797 827 5
a 827 797 5
a 797 798 7
a 798 797 7
a 798 828 9
a 828 798 9
a 798 799 2
a 799 798 2
a 799 829 1
a 829 799 1
a 799 800 8
a 800 799 8
a 800 830 6
a 830 800 6
a 800 801 5
a 801 800 5
a 801 831 1
a 831 801 1
a 801 802 4
a 802 801 4
a 802 832 10
a 832 802 10
a 802 803 2
a 803 802 2
a 803 833 7
a 833 803 7
a 803 804 8
a 804 803 8
a 804 834 4
a 834 804 4
a 804 805 4
a 805 804 4
a 805 835 7
a 835 805 7
a 805 806 1
a 806 805 1
a 806 836 6
a 836 806 6
a 806 807 10
a 807 806 10
a 807 808 6
a 808 807 6
a 808 838 6
a 838 808 6
a 808 809 7
a 809 808 7
a 809 839 7
a 839 809 7
a 809 810 6
a 810 809 6
a 810 840 10
a 840 810 10
a 811 841 1
a 841 811 1
a 811 812 10
a 812 811 10
a 812 842 3
a 842 812 3
a 812 813 5
a 813 812 5
a 813 843 4
a 843 813 4
a 815 845 6
a 845 815 6
a 815 816 1
a 816 815 1
a 816 846 2
a 846 816 2
a 816 817 3
a 817 816 3
a 817 847 3
a 847 817 3
a 817 818 8
a 818 817 8
a 818 848 9
a 848 818 9
a 818 819 2
a 819 818 2
a 819 849 4
a 849 819 4
a 819 820 9
a 820 819 9
a 820 850 4
a 850 820 4
a 820 821 3
a 821 820 3
a 821 851 2
a 851 821 2
a 821 822 4
a 822 821 4
a 822 852 3
a 852 822 3
a 822 823 7
a 823 822 7
a 823 853 1
a 853 823 1
a 823 824 8
a 824 823 8
a 824 854 7
a 854 824 7
a 824 825 5
a 825 824 5
a 825 855 7
a 855 825 7
a 825 826 10
a 826 825 10
a 826 856 1
a 856 826 1
a 826 827 6
a 827 826 6
a 827 857 10
a 857 827 10
a 827 828 5
a 828 827 5
a 828 858 2
a 858 828 2
a 828 829 6
a 829 828 6
a 829 859 8
a 859 829 8
a 829 830 1
a 830 829 1
a 830 860 1
a 860 830 1
a 830 831 7
a 831 830 7
a 831 861 5
a 861 831 5
a 831 832 5
a 832 831 5
a 832 862 7
a 862 832 7
a 832 833 9
a 833 832 9
a 833 863 6
a 863 833 6
a 833 834 8
a 834 833 8
a 834 864 2
a 864 834 2
a 834 835 7
a 835 834 7
a 835 865 6
a 865 835 6
a 835 836 1
a 836 835 1
a 836 866 5
a 866 836 5
a 838 868 4
a 868 838 4
a 838 839 9
a 839 838 9
a 839 869 2
a 869 839 2
a 839 840 8
a 840 839 8
a 840 870 3
a 870 840 3
a 841 871 2
a 871 841 2
a 841 842 7
a 842 841 7
a 842 872 9
a 872 842 9
a 842 843 4
a 843 842 4
a 843 873 9
a 873 843 9
a 843 844 4
a 844 843 4
a 844 874 4
a 874 844 4
a 844 845 8
a 845 844 8
a 845 875 2
a 875 845 2
a 845 846 9
a 846 845 9
a 846 876 2
a 876 846 2
a 846 847 10
a 847 846 10
a 847 877 8
a 877 847 8
a 847 848 8
a 848 847 8
a 848 849 1
a 849 848 1
a 849 879 2
a 879 849 2
a 849 850 6
a 850 849 6
a 850 880 8
a 880 850 8
a 850 851 3
a 851 850 3
a 851 881 8
a 881 851 8
a 851 852 4
a 852 851 4
a 852 882 4
a 882 852 4
a 852 853 2
a 853 852 2
a 853 854 5
a 854 853 5
a 854 884 3
a 884 854 3
a 854 855 7
a 855 854 7
a 855 885 3
a 885 855 3
a 855 856 9
a 856 855 9
a 856 886 6
a 886 856 6
a 856 857 1
a 857 856 1
a 857 887 5
a 887 857 5
a 857 858 7
a 858 857 7
a 858 859 8
a 859 858 8
a 859 889 2
a 889 859 2
a 859 860 1
a 860 859 1
a 860 890 2
a 890 860 2
a 860 861 8
a 861 860 8
a 861 891 3
a 891 861 3
a 861 862 9
a 862 861 9
a 862 892 8
a 892 862 8
a 862 863 1
a 863 862 1
a 863 893 5
a 893 863 5
a 863 864 2
a 864 863 2
a 864 865 4
a 865 864 4
a 865 866 6
a 866 865 6
a 866 896 1
a 896 866 1
a 866 867 3
a 867 866 3
a 867 897 6
a 897 867 6
a 867 868 8
a 868 867 8
a 868 898 7
a 898 868 7
a 868 869 9
a 869 868 9
a 869 899 9
a 899 869 9
a 869 870 5
a 870 869 5
a 870 900 8
a 900 870 8
a 871 872 6
a 872 871 6
a 872 873 1
a 873 872 1
a 873 874 2
a 874 873 2
a 874 875 8
a 875 874 8
a 875 876 8
a 876 875 8
a 876 877 1
a 877 876 1
a 879 880 8
a 880 879 8
a 880 881 5
a 881 880 5
a 881 882 4
a 882 881 4
a 884 885 8
a 885 884 8
a 885 886 7
a 886 885 7
a 886 887 2
a 887 886 2
a 889 890 10
a 890 889 10
a 890 891 7
a 891 890 7
a 891 892 4
a 892 891 4
a 892 893 7
a 893 892 7
a 896 897 6
a 897 896 6
a 897 898 6
a 898 897 6
a 898 899 3
a 899 898 3
a 899 900 2
a 900 899 2
